NAME : mar30_100_0
COMMENT : Data set with 30 points
COMMENT : CIn-UFPE
COMMENT : Contributed by Marcelo Lacerda
TYPE : TSP
DIMENSION : 30
EDGE_WEIGHT_TYPE : EUC_2D
NODE_COORD_SECTION
1 10 92
2 20 94
3 33 64
4 73 59
5 25 8
6 54 26
7 48 56
8 41 62
9 89 60
10 55 7
11 20 27
12 51 30
13 36 19
14 85 73
15 96 41
16 66 31
17 21 25
18 7 55
19 77 33
20 22 55
21 63 17
22 45 56
23 77 11
24 12 86
25 59 42
26 66 1
27 20 19
28 61 29
29 47 35
30 82 64
EOF
